projected/problems_b25_r0_d7_m100_s666/_DIMACS/b25_d7_r0_s666_057.cnf
p cnf 211 318 25
c p show 1 2 3 4 5 6 7 8 9 10 11 12 13 14 15 16 17 18 19 20 21 22 23 24 25
-181 17 0
-181 4 0
-182 -11 -13 0
-183 182 0
-183 181 0
-184 -25 8 0
-185 -25 -7 0
-186 185 0
-186 184 0
-187 186 0
-187 183 0
-188 1 0
-188 24 0
-189 -12 0
-189 -23 0
-190 189 188 0
-191 -9 0
-191 -17 0
-192 3 0
-192 23 0
-193 192 0
-193 191 0
-194 193 0
-194 190 0
-195 9 17 0
-196 -3 -23 0
-197 196 195 0
-198 -1 -24 0
-199 12 23 0
-200 199 0
-200 198 0
-201 200 0
-201 197 0
-202 201 194 0
-203 202 187 0
-204 21 -12 0
-205 24 20 0
-206 205 204 0
-207 -21 3 0
-208 -5 0
-208 8 0
-209 -8 0
-209 5 0
-210 209 208 0
-211 210 0
-211 207 0
-26 211 206 0
-27 21 0
-27 -3 0
-28 5 -8 0
-29 8 -5 0
-30 29 0
-30 28 0
-31 30 27 0
-32 -21 0
-32 12 0
-33 -24 0
-33 -20 0
-34 33 0
-34 32 0
-35 34 31 0
-36 35 0
-36 26 0
-37 -13 0
-37 -21 0
-38 -17 0
-38 -15 0
-39 38 0
-39 37 0
-40 17 15 0
-41 13 21 0
-42 41 0
-42 40 0
-43 42 39 0
-44 4 -6 0
-45 18 0
-45 19 0
-46 45 44 0
-47 -18 -19 0
-48 -4 0
-48 6 0
-49 48 47 0
-50 49 0
-50 46 0
-51 50 0
-51 43 0
-52 51 36 0
-53 52 0
-53 203 0
-54 -4 6 0
-55 -19 -12 0
-56 55 54 0
-57 -9 0
-57 -3 0
-58 1 0
-58 13 0
-59 58 0
-59 57 0
-60 59 0
-60 56 0
-61 -24 0
-61 -17 0
-62 17 0
-62 19 0
-63 62 0
-63 61 0
-64 -11 0
-64 21 0
-65 -21 0
-65 11 0
-66 65 64 0
-67 -2 0
-67 -16 0
-68 67 0
-68 66 0
-69 68 63 0
-70 69 60 0
-71 3 -6 0
-72 6 -3 0
-73 72 0
-73 71 0
-74 24 4 0
-75 74 0
-75 73 0
-76 -3 0
-76 -14 0
-77 -2 0
-77 2 0
-78 77 76 0
-79 78 0
-79 75 0
-80 3 14 0
-81 2 -2 0
-82 81 0
-82 80 0
-83 -3 0
-83 6 0
-84 -6 0
-84 3 0
-85 84 83 0
-86 -24 0
-86 -4 0
-87 86 85 0
-88 87 0
-88 82 0
-89 88 79 0
-90 -18 20 0
-91 -19 0
-91 -21 0
-92 91 90 0
-93 22 0
-93 -13 0
-94 -22 -15 0
-95 94 93 0
-96 95 0
-96 92 0
-97 96 89 0
-98 97 70 0
-99 98 0
-99 53 0
-100 -17 24 0
-101 25 0
-101 -17 0
-102 101 100 0
-103 -17 -10 0
-104 6 -5 0
-105 104 0
-105 103 0
-106 105 102 0
-107 -16 18 0
-108 -17 -24 0
-109 108 0
-109 107 0
-110 -7 -22 0
-111 13 0
-111 -24 0
-112 111 0
-112 110 0
-113 112 0
-113 109 0
-114 113 106 0
-115 20 0
-115 3 0
-116 -12 9 0
-117 116 115 0
-118 12 0
-118 -9 0
-119 -20 -3 0
-120 119 118 0
-121 120 0
-121 117 0
-122 20 3 0
-123 -8 0
-123 -25 0
-124 25 0
-124 8 0
-125 124 123 0
-126 125 122 0
-127 126 121 0
-128 -19 18 0
-129 1 0
-129 -19 0
-130 129 0
-130 128 0
-131 12 -12 0
-132 -22 0
-132 20 0
-133 132 131 0
-134 133 130 0
-135 -12 0
-135 12 0
-136 22 -20 0
-137 136 0
-137 135 0
-138 19 0
-138 -18 0
-139 -1 19 0
-140 139 138 0
-141 140 137 0
-142 141 0
-142 134 0
-143 142 127 0
-144 143 0
-144 114 0
-145 -1 0
-145 -9 0
-146 9 0
-146 1 0
-147 146 145 0
-148 -10 -21 0
-149 148 0
-149 147 0
-150 -10 1 0
-151 -9 8 0
-152 151 0
-152 150 0
-153 152 149 0
-154 -5 19 0
-155 -19 5 0
-156 155 0
-156 154 0
-157 6 0
-157 -12 0
-158 157 156 0
-159 21 -20 0
-160 12 18 0
-161 160 159 0
-162 161 0
-162 158 0
-163 162 153 0
-164 -9 2 0
-165 -15 0
-165 5 0
-166 165 164 0
-167 2 -12 0
-168 -11 -19 0
-169 168 167 0
-170 169 166 0
-171 -6 0
-171 -9 0
-172 -21 0
-172 3 0
-173 172 171 0
-174 -18 5 0
-175 16 0
-175 4 0
-176 175 0
-176 174 0
-177 176 173 0
-178 177 0
-178 170 0
-179 178 0
-179 163 0
-180 179 0
-180 144 0
180 99 0
-195 -191 0
-191 -195 0
-196 -192 0
-192 -196 0
-193 -197 0
-188 -198 0
-198 -188 0
-189 -199 0
-199 -189 0
-200 -190 0
-207 -27 0
-27 -207 0
-30 -210 0
-31 -211 0
-204 -32 0
-32 -204 0
-33 -205 0
-34 -206 0
-206 -34 0
-40 -38 0
-38 -40 0
-41 -37 0
-47 -45 0
-48 -44 0
-44 -48 0
-76 -80 0
-77 -81 0
-78 -82 0
-73 -85 0
-85 -73 0
-86 -74 0
-87 -75 0
-118 -116 0
-115 -119 0
-135 -131 0
-132 -136 0
-136 -132 0
-137 -133 0
-138 -128 0
-128 -138 0
-129 -139 0
-130 -140 0
