projected/problems_b25_r0_d7_m100_s666/b25_d7_r0_s666_057.smt2
(set-logic QF_UF)
(declare-fun A0 () Bool)
(declare-fun A1 () Bool)
(declare-fun A2 () Bool)
(declare-fun A3 () Bool)
(declare-fun A4 () Bool)
(declare-fun A5 () Bool)
(declare-fun A6 () Bool)
(declare-fun A7 () Bool)
(declare-fun A8 () Bool)
(declare-fun A9 () Bool)
(declare-fun A10 () Bool)
(declare-fun A11 () Bool)
(declare-fun A12 () Bool)
(declare-fun A13 () Bool)
(declare-fun A14 () Bool)
(declare-fun A15 () Bool)
(declare-fun A16 () Bool)
(declare-fun A17 () Bool)
(declare-fun A18 () Bool)
(declare-fun A19 () Bool)
(declare-fun A20 () Bool)
(declare-fun A21 () Bool)
(declare-fun A22 () Bool)
(declare-fun A23 () Bool)
(declare-fun A24 () Bool)
(assert (let ((.def_0 (and A16 A3))) (let ((.def_1 (not A12))) (let ((.def_2 (not A10))) (let ((.def_3 (or .def_2 .def_1))) (let ((.def_4 (and .def_3 .def_0))) (let ((.def_5 (not A24))) (let ((.def_6 (or .def_5 A7))) (let ((.def_7 (not .def_6))) (let ((.def_8 (and A24 A6))) (let ((.def_9 (or .def_8 .def_7))) (let ((.def_10 (not .def_9))) (let ((.def_11 (and .def_10 .def_4))) (let ((.def_12 (not .def_11))) (let ((.def_13 (or A8 A16))) (let ((.def_14 (not .def_13))) (let ((.def_15 (not A22))) (let ((.def_16 (not A2))) (let ((.def_17 (or .def_16 .def_15))) (let ((.def_18 (not .def_17))) (let ((.def_19 (and .def_18 .def_14))) (let ((.def_20 (and A0 A23))) (let ((.def_21 (not .def_20))) (let ((.def_22 (not A11))) (let ((.def_23 (and .def_22 .def_15))) (let ((.def_24 (not .def_23))) (let ((.def_25 (and .def_24 .def_21))) (let ((.def_26 (= .def_25 .def_19))) (let ((.def_27 (and .def_26 .def_12))) (let ((.def_28 (not .def_27))) (let ((.def_29 (not A20))) (let ((.def_30 (or .def_29 A2))) (let ((.def_31 (not .def_30))) (let ((.def_32 (not A4))) (let ((.def_33 (not A7))) (let ((.def_34 (= .def_33 .def_32))) (let ((.def_35 (or .def_34 .def_31))) (let ((.def_36 (or A20 .def_22))) (let ((.def_37 (not .def_36))) (let ((.def_38 (not A19))) (let ((.def_39 (not A23))) (let ((.def_40 (and .def_39 .def_38))) (let ((.def_41 (and .def_40 .def_37))) (let ((.def_42 (not .def_41))) (let ((.def_43 (= .def_42 .def_35))) (let ((.def_44 (or A16 A14))) (let ((.def_45 (not .def_44))) (let ((.def_46 (or A12 A20))) (let ((.def_47 (= .def_46 .def_45))) (let ((.def_48 (not .def_47))) (let ((.def_49 (not A18))) (let ((.def_50 (not A17))) (let ((.def_51 (or .def_50 .def_49))) (let ((.def_52 (not A3))) (let ((.def_53 (and .def_52 A5))) (let ((.def_54 (not .def_53))) (let ((.def_55 (= .def_54 .def_51))) (let ((.def_56 (and .def_55 .def_48))) (let ((.def_57 (or .def_56 .def_43))) (let ((.def_58 (and .def_57 .def_28))) (let ((.def_59 (not .def_58))) (let ((.def_60 (or .def_52 A5))) (let ((.def_61 (not .def_60))) (let ((.def_62 (or .def_49 .def_22))) (let ((.def_63 (not .def_62))) (let ((.def_64 (and .def_63 .def_61))) (let ((.def_65 (not .def_64))) (let ((.def_66 (or A8 A2))) (let ((.def_67 (not A0))) (let ((.def_68 (or .def_67 .def_1))) (let ((.def_69 (or .def_68 .def_66))) (let ((.def_70 (not .def_69))) (let ((.def_71 (and .def_70 .def_65))) (let ((.def_72 (or A23 A16))) (let ((.def_73 (not .def_72))) (let ((.def_74 (not A16))) (let ((.def_75 (or .def_74 .def_49))) (let ((.def_76 (not .def_75))) (let ((.def_77 (and .def_76 .def_73))) (let ((.def_78 (not .def_77))) (let ((.def_79 (= .def_29 .def_2))) (let ((.def_80 (not .def_79))) (let ((.def_81 (or A1 A15))) (let ((.def_82 (not .def_81))) (let ((.def_83 (and .def_82 .def_80))) (let ((.def_84 (not .def_83))) (let ((.def_85 (and .def_84 .def_78))) (let ((.def_86 (not .def_85))) (let ((.def_87 (or .def_86 .def_71))) (let ((.def_88 (not .def_87))) (let ((.def_89 (not A13))) (let ((.def_90 (and .def_16 .def_89))) (let ((.def_91 (not A1))) (let ((.def_92 (and .def_91 A1))) (let ((.def_93 (or .def_92 .def_90))) (let ((.def_94 (not A5))) (let ((.def_95 (= .def_94 .def_16))) (let ((.def_96 (not .def_95))) (let ((.def_97 (and .def_39 .def_52))) (let ((.def_98 (or .def_97 .def_96))) (let ((.def_99 (= .def_98 .def_93))) (let ((.def_100 (and A17 .def_38))) (let ((.def_101 (not .def_100))) (let ((.def_102 (or A18 A20))) (let ((.def_103 (not .def_102))) (let ((.def_104 (or .def_103 .def_101))) (let ((.def_105 (not A21))) (let ((.def_106 (or .def_105 A12))) (let ((.def_107 (not A14))) (let ((.def_108 (or .def_105 .def_107))) (let ((.def_109 (not .def_108))) (let ((.def_110 (and .def_109 .def_106))) (let ((.def_111 (not .def_110))) (let ((.def_112 (and .def_111 .def_104))) (let ((.def_113 (not .def_112))) (let ((.def_114 (and .def_113 .def_99))) (let ((.def_115 (and .def_114 .def_88))) (let ((.def_116 (or .def_115 .def_59))) (let ((.def_117 (not .def_116))) (let ((.def_118 (or .def_74 A23))) (let ((.def_119 (and A24 .def_74))) (let ((.def_120 (or .def_119 .def_118))) (let ((.def_121 (not A9))) (let ((.def_122 (or .def_74 .def_121))) (let ((.def_123 (not .def_122))) (let ((.def_124 (or A5 .def_32))) (let ((.def_125 (not .def_124))) (let ((.def_126 (or .def_125 .def_123))) (let ((.def_127 (not .def_126))) (let ((.def_128 (or .def_127 .def_120))) (let ((.def_129 (not .def_128))) (let ((.def_130 (and A15 .def_50))) (let ((.def_131 (not .def_130))) (let ((.def_132 (and A16 A23))) (let ((.def_133 (not .def_132))) (let ((.def_134 (and .def_133 .def_131))) (let ((.def_135 (not .def_134))) (let ((.def_136 (not A6))) (let ((.def_137 (or .def_136 .def_105))) (let ((.def_138 (not .def_137))) (let ((.def_139 (or .def_1 A23))) (let ((.def_140 (or .def_139 .def_138))) (let ((.def_141 (or .def_140 .def_135))) (let ((.def_142 (and .def_141 .def_129))) (let ((.def_143 (not A8))) (let ((.def_144 (and A11 .def_143))) (let ((.def_145 (and A19 A2))) (let ((.def_146 (= .def_145 .def_144))) (let ((.def_147 (or A19 A2))) (let ((.def_148 (= A24 .def_33))) (let ((.def_149 (not .def_148))) (let ((.def_150 (or .def_149 .def_147))) (let ((.def_151 (or .def_150 .def_146))) (let ((.def_152 (not .def_151))) (let ((.def_153 (and .def_22 A11))) (let ((.def_154 (and .def_105 A19))) (let ((.def_155 (not .def_154))) (let ((.def_156 (and .def_155 .def_153))) (let ((.def_157 (and A18 .def_50))) (let ((.def_158 (not .def_157))) (let ((.def_159 (and A0 .def_49))) (let ((.def_160 (and .def_159 .def_158))) (let ((.def_161 (= .def_160 .def_156))) (let ((.def_162 (not .def_161))) (let ((.def_163 (and .def_162 .def_152))) (let ((.def_164 (or .def_163 .def_142))) (let ((.def_165 (not .def_164))) (let ((.def_166 (= A8 .def_67))) (let ((.def_167 (not .def_166))) (let ((.def_168 (or .def_121 .def_29))) (let ((.def_169 (and .def_168 .def_167))) (let ((.def_170 (not .def_169))) (let ((.def_171 (and A9 .def_67))) (let ((.def_172 (or .def_143 A7))) (let ((.def_173 (not .def_172))) (let ((.def_174 (or .def_173 .def_171))) (let ((.def_175 (and .def_174 .def_170))) (let ((.def_176 (= A18 A4))) (let ((.def_177 (not .def_176))) (let ((.def_178 (or .def_94 A11))) (let ((.def_179 (and .def_178 .def_177))) (let ((.def_180 (or A20 .def_38))) (let ((.def_181 (and .def_22 .def_50))) (let ((.def_182 (not .def_181))) (let ((.def_183 (or .def_182 .def_180))) (let ((.def_184 (not .def_183))) (let ((.def_185 (or .def_184 .def_179))) (let ((.def_186 (and .def_185 .def_175))) (let ((.def_187 (or .def_143 A1))) (let ((.def_188 (not .def_187))) (let ((.def_189 (and .def_107 A4))) (let ((.def_190 (not .def_189))) (let ((.def_191 (and .def_190 .def_188))) (let ((.def_192 (not .def_191))) (let ((.def_193 (and .def_91 A11))) (let ((.def_194 (and A10 A18))) (let ((.def_195 (and .def_194 .def_193))) (let ((.def_196 (not .def_195))) (let ((.def_197 (or .def_196 .def_192))) (let ((.def_198 (and .def_94 .def_143))) (let ((.def_199 (not .def_198))) (let ((.def_200 (or A20 .def_16))) (let ((.def_201 (and .def_200 .def_199))) (let ((.def_202 (not .def_201))) (let ((.def_203 (or .def_50 A4))) (let ((.def_204 (and A15 A3))) (let ((.def_205 (and .def_204 .def_203))) (let ((.def_206 (or .def_205 .def_202))) (let ((.def_207 (and .def_206 .def_197))) (let ((.def_208 (not .def_207))) (let ((.def_209 (or .def_208 .def_186))) (let ((.def_210 (not .def_209))) (let ((.def_211 (and .def_210 .def_165))) (let ((.def_212 (or .def_211 .def_117))) .def_212))))))))))))))))))))))))))))))))))))))))))))))))))))))))))))))))))))))))))))))))))))))))))))))))))))))))))))))))))))))))))))))))))))))))))))))))))))))))))))))))))))))))))))))))))))))))))))))))))))))))))))))))))))))
(check-sat)
